certificates/rado_a5_c77_N16.drat
-16 0
13 0
-1 0
-15 0
4 0
12 0
14 0
3 0
-5 0
-7 0
-6 0
-2 0
-11 0
-10 0
0
